Maximize
F 

Subject to
F - 12.0y76 - 3.0y259 - 12.0y15 - 12.0y224 - 12.0y77 - 3.0y83 - 6.0y89 - 12.0y119 - 6.0y312 - 12.0y169 - 3.0y161 - 12.0y6 - 3.0y265 - 6.0y47 - 9.0y185 - 12.0y255 - 9.0y18 - 3.0y25 - 6.0y210 - 3.0y213 - 12.0y313 = 0

x237x210x1 + x237x313x1 
<= 2
x330x15x1 + x330x224x1 + x330x77x1 + x330x83x1 + x330x312x1 + x330x169x1 + x330x6x1 + x330x265x1 + x330x47x1 + x330x185x1 + x330x255x1 + x330x18x1 + x330x25x1 + x330x210x1 + x330x213x1 + x330x313x1 
<= 1
x171x169x1 + x171x6x1 + x171x265x1 + x171x47x1 + x171x185x1 + x171x255x1 + x171x18x1 + x171x25x1 + x171x210x1 + x171x213x1 + x171x313x1 
<= 1
x166x77x1 + x166x312x1 + x166x169x1 + x166x6x1 + x166x265x1 + x166x47x1 + x166x185x1 + x166x255x1 + x166x18x1 + x166x25x1 + x166x210x1 + x166x213x1 + x166x313x1 
<= 2
x78x265x1 + x78x47x1 + x78x185x1 + x78x255x1 + x78x18x1 + x78x25x1 + x78x210x1 + x78x213x1 + x78x313x1 
<= 1
x19x47x1 + x19x185x1 + x19x255x1 + x19x18x1 + x19x25x1 + x19x210x1 + x19x213x1 + x19x313x1 
<= 1
x148x185x1 + x148x18x1 + x148x213x1 
<= 1
x171x169x2 + x171x161x2 + x171x47x2 + x171x25x2 + x171x213x2 
<= 1
x78x47x2 + x78x25x2 + x78x213x2 
<= 1
x204x119x2 + x204x169x2 + x204x161x2 + x204x47x2 + x204x25x2 + x204x213x2 
<= 1
x17x213x2 
<= 2
x289x213x2 
<= 2
x52x77x3 + x52x119x3 + x52x312x3 + x52x161x3 + x52x6x3 + x52x18x3 + x52x210x3 
<= 2
x204x77x3 + x204x119x3 + x204x312x3 + x204x161x3 + x204x6x3 + x204x18x3 + x204x210x3 
<= 1
x19x18x3 + x19x210x3 
<= 1
x148x18x3 
<= 1


- x76x119x2 - x76x169x2 - x76x161x2 - x76x47x2 - x76x25x2 - x76x213x2 
= 0




- x259x119x2 - x259x169x2 - x259x161x2 - x259x47x2 - x259x25x2 - x259x213x2 
= 0


x330x15x1 
- x15x0x1
- x15x83x1 - x15x6x1 - x15x265x1 - x15x47x1 - x15x185x1 - x15x255x1 - x15x18x1 - x15x25x1 - x15x210x1 - x15x213x1 - x15x313x1 
= 0



x330x224x1 
- x224x0x1
- x224x83x1 - x224x6x1 - x224x265x1 - x224x47x1 - x224x185x1 - x224x255x1 - x224x18x1 - x224x25x1 - x224x210x1 - x224x213x1 - x224x313x1 
= 0



x330x77x1 + x166x77x1 
- x77x0x1
- x77x312x1 - x77x169x1 - x77x6x1 - x77x265x1 - x77x47x1 - x77x185x1 - x77x255x1 - x77x18x1 - x77x25x1 - x77x210x1 - x77x213x1 - x77x313x1 
= 0

x52x77x3 + x204x77x3 
- x77x0x3
- x77x119x3 - x77x312x3 - x77x161x3 - x77x6x3 - x77x18x3 - x77x210x3 
= 0

x330x83x1 + x15x83x1 + x224x83x1 
- x83x0x1
- x83x265x1 - x83x47x1 - x83x185x1 - x83x255x1 - x83x18x1 - x83x25x1 - x83x210x1 - x83x213x1 - x83x313x1 
= 0





- x89x47x2 - x89x25x2 - x89x213x2 
= 0



x204x119x2 + x76x119x2 + x259x119x2 
- x119x0x2
- x119x169x2 - x119x161x2 - x119x47x2 - x119x25x2 - x119x213x2 
= 0
x52x119x3 + x204x119x3 + x77x119x3 
- x119x0x3
- x119x161x3 - x119x6x3 - x119x18x3 - x119x210x3 
= 0

x330x312x1 + x166x312x1 + x77x312x1 
- x312x0x1
- x312x169x1 - x312x6x1 - x312x265x1 - x312x47x1 - x312x255x1 - x312x18x1 - x312x25x1 - x312x210x1 - x312x213x1 - x312x313x1 
= 0

x52x312x3 + x204x312x3 + x77x312x3 
- x312x0x3
- x312x161x3 - x312x6x3 - x312x18x3 - x312x210x3 
= 0

x330x169x1 + x171x169x1 + x166x169x1 + x77x169x1 + x312x169x1 
- x169x0x1
- x169x6x1 - x169x265x1 - x169x47x1 - x169x255x1 - x169x25x1 - x169x210x1 - x169x213x1 - x169x313x1 
= 0
x171x169x2 + x204x169x2 + x76x169x2 + x259x169x2 + x119x169x2 
- x169x0x2
- x169x47x2 - x169x25x2 - x169x213x2 
= 0



x171x161x2 + x204x161x2 + x76x161x2 + x259x161x2 + x119x161x2 
- x161x0x2
- x161x47x2 - x161x25x2 
= 0
x52x161x3 + x204x161x3 + x77x161x3 + x119x161x3 + x312x161x3 
- x161x0x3
- x161x210x3 
= 0

x330x6x1 + x171x6x1 + x166x6x1 + x15x6x1 + x224x6x1 + x77x6x1 + x312x6x1 + x169x6x1 
- x6x0x1
- x6x265x1 - x6x47x1 - x6x255x1 - x6x25x1 - x6x210x1 - x6x313x1 
= 0

x52x6x3 + x204x6x3 + x77x6x3 + x119x6x3 + x312x6x3 
- x6x0x3
- x6x210x3 
= 0

x330x265x1 + x171x265x1 + x166x265x1 + x78x265x1 + x15x265x1 + x224x265x1 + x77x265x1 + x83x265x1 + x312x265x1 + x169x265x1 + x6x265x1 
- x265x0x1
- x265x47x1 - x265x255x1 - x265x25x1 - x265x210x1 - x265x313x1 
= 0



x330x47x1 + x171x47x1 + x166x47x1 + x78x47x1 + x19x47x1 + x15x47x1 + x224x47x1 + x77x47x1 + x83x47x1 + x312x47x1 + x169x47x1 + x6x47x1 + x265x47x1 
- x47x0x1
- x47x255x1 - x47x25x1 - x47x210x1 - x47x313x1 
= 0
x171x47x2 + x78x47x2 + x204x47x2 + x76x47x2 + x259x47x2 + x89x47x2 + x119x47x2 + x169x47x2 + x161x47x2 
- x47x0x2
- x47x25x2 
= 0


x330x185x1 + x171x185x1 + x166x185x1 + x78x185x1 + x19x185x1 + x148x185x1 + x15x185x1 + x224x185x1 + x77x185x1 + x83x185x1 
- x185x0x1
- x185x18x1 - x185x213x1 
= 0



x330x255x1 + x171x255x1 + x166x255x1 + x78x255x1 + x19x255x1 + x15x255x1 + x224x255x1 + x77x255x1 + x83x255x1 + x312x255x1 + x169x255x1 + x6x255x1 + x265x255x1 + x47x255x1 
- x255x0x1
- x255x25x1 - x255x210x1 - x255x313x1 
= 0



x330x18x1 + x171x18x1 + x166x18x1 + x78x18x1 + x19x18x1 + x148x18x1 + x15x18x1 + x224x18x1 + x77x18x1 + x83x18x1 + x312x18x1 + x185x18x1 
- x18x0x1
- x18x213x1 
= 0

x52x18x3 + x204x18x3 + x19x18x3 + x148x18x3 + x77x18x3 + x119x18x3 + x312x18x3 
- x18x0x3

= 0

x330x25x1 + x171x25x1 + x166x25x1 + x78x25x1 + x19x25x1 + x15x25x1 + x224x25x1 + x77x25x1 + x83x25x1 + x312x25x1 + x169x25x1 + x6x25x1 + x265x25x1 + x47x25x1 + x255x25x1 
- x25x0x1
- x25x210x1 - x25x313x1 
= 0
x171x25x2 + x78x25x2 + x204x25x2 + x76x25x2 + x259x25x2 + x89x25x2 + x119x25x2 + x169x25x2 + x161x25x2 + x47x25x2 
- x25x0x2

= 0


x237x210x1 + x330x210x1 + x171x210x1 + x166x210x1 + x78x210x1 + x19x210x1 + x15x210x1 + x224x210x1 + x77x210x1 + x83x210x1 + x312x210x1 + x169x210x1 + x6x210x1 + x265x210x1 + x47x210x1 + x255x210x1 + x25x210x1 
- x210x0x1
- x210x313x1 
= 0

x52x210x3 + x204x210x3 + x19x210x3 + x77x210x3 + x119x210x3 + x312x210x3 + x161x210x3 + x6x210x3 
- x210x0x3

= 0

x330x213x1 + x171x213x1 + x166x213x1 + x78x213x1 + x19x213x1 + x148x213x1 + x15x213x1 + x224x213x1 + x77x213x1 + x83x213x1 + x312x213x1 + x169x213x1 + x185x213x1 + x18x213x1 
- x213x0x1

= 0
x171x213x2 + x78x213x2 + x204x213x2 + x17x213x2 + x289x213x2 + x76x213x2 + x259x213x2 + x89x213x2 + x119x213x2 + x169x213x2 
- x213x0x2

= 0


x237x313x1 + x330x313x1 + x171x313x1 + x166x313x1 + x78x313x1 + x19x313x1 + x15x313x1 + x224x313x1 + x77x313x1 + x83x313x1 + x312x313x1 + x169x313x1 + x6x313x1 + x265x313x1 + x47x313x1 + x255x313x1 + x25x313x1 + x210x313x1 
- x313x0x1

= 0



2y76 = 0
2y259 = 0
2y15 - x330x15x1 = 0
2y224 - x330x224x1 = 0
1y77 - x330x77x1 - x166x77x1 = 0
1y77 - x52x77x3 - x204x77x3 = 0
2y83 - x330x83x1 - x15x83x1 - x224x83x1 = 0
2y89 = 0
1y119 - x204x119x2 - x76x119x2 - x259x119x2 = 0
1y119 - x52x119x3 - x204x119x3 - x77x119x3 = 0
1y312 - x330x312x1 - x166x312x1 - x77x312x1 = 0
1y312 - x52x312x3 - x204x312x3 - x77x312x3 = 0
1y169 - x330x169x1 - x171x169x1 - x166x169x1 - x77x169x1 - x312x169x1 = 0
1y169 - x171x169x2 - x204x169x2 - x76x169x2 - x259x169x2 - x119x169x2 = 0
1y161 - x171x161x2 - x204x161x2 - x76x161x2 - x259x161x2 - x119x161x2 = 0
1y161 - x52x161x3 - x204x161x3 - x77x161x3 - x119x161x3 - x312x161x3 = 0
1y6 - x330x6x1 - x171x6x1 - x166x6x1 - x15x6x1 - x224x6x1 - x77x6x1 - x312x6x1 - x169x6x1 = 0
1y6 - x52x6x3 - x204x6x3 - x77x6x3 - x119x6x3 - x312x6x3 = 0
2y265 - x330x265x1 - x171x265x1 - x166x265x1 - x78x265x1 - x15x265x1 - x224x265x1 - x77x265x1 - x83x265x1 - x312x265x1 - x169x265x1 - x6x265x1 = 0
1y47 - x330x47x1 - x171x47x1 - x166x47x1 - x78x47x1 - x19x47x1 - x15x47x1 - x224x47x1 - x77x47x1 - x83x47x1 - x312x47x1 - x169x47x1 - x6x47x1 - x265x47x1 = 0
1y47 - x171x47x2 - x78x47x2 - x204x47x2 - x76x47x2 - x259x47x2 - x89x47x2 - x119x47x2 - x169x47x2 - x161x47x2 = 0
2y185 - x330x185x1 - x171x185x1 - x166x185x1 - x78x185x1 - x19x185x1 - x148x185x1 - x15x185x1 - x224x185x1 - x77x185x1 - x83x185x1 = 0
2y255 - x330x255x1 - x171x255x1 - x166x255x1 - x78x255x1 - x19x255x1 - x15x255x1 - x224x255x1 - x77x255x1 - x83x255x1 - x312x255x1 - x169x255x1 - x6x255x1 - x265x255x1 - x47x255x1 = 0
1y18 - x330x18x1 - x171x18x1 - x166x18x1 - x78x18x1 - x19x18x1 - x148x18x1 - x15x18x1 - x224x18x1 - x77x18x1 - x83x18x1 - x312x18x1 - x185x18x1 = 0
1y18 - x52x18x3 - x204x18x3 - x19x18x3 - x148x18x3 - x77x18x3 - x119x18x3 - x312x18x3 = 0
1y25 - x330x25x1 - x171x25x1 - x166x25x1 - x78x25x1 - x19x25x1 - x15x25x1 - x224x25x1 - x77x25x1 - x83x25x1 - x312x25x1 - x169x25x1 - x6x25x1 - x265x25x1 - x47x25x1 - x255x25x1 = 0
1y25 - x171x25x2 - x78x25x2 - x204x25x2 - x76x25x2 - x259x25x2 - x89x25x2 - x119x25x2 - x169x25x2 - x161x25x2 - x47x25x2 = 0
1y210 - x237x210x1 - x330x210x1 - x171x210x1 - x166x210x1 - x78x210x1 - x19x210x1 - x15x210x1 - x224x210x1 - x77x210x1 - x83x210x1 - x312x210x1 - x169x210x1 - x6x210x1 - x265x210x1 - x47x210x1 - x255x210x1 - x25x210x1 = 0
1y210 - x52x210x3 - x204x210x3 - x19x210x3 - x77x210x3 - x119x210x3 - x312x210x3 - x161x210x3 - x6x210x3 = 0
1y213 - x330x213x1 - x171x213x1 - x166x213x1 - x78x213x1 - x19x213x1 - x148x213x1 - x15x213x1 - x224x213x1 - x77x213x1 - x83x213x1 - x312x213x1 - x169x213x1 - x185x213x1 - x18x213x1 = 0
1y213 - x171x213x2 - x78x213x2 - x204x213x2 - x17x213x2 - x289x213x2 - x76x213x2 - x259x213x2 - x89x213x2 - x119x213x2 - x169x213x2 = 0
2y313 - x237x313x1 - x330x313x1 - x171x313x1 - x166x313x1 - x78x313x1 - x19x313x1 - x15x313x1 - x224x313x1 - x77x313x1 - x83x313x1 - x312x313x1 - x169x313x1 - x6x313x1 - x265x313x1 - x47x313x1 - x255x313x1 - x25x313x1 - x210x313x1 = 0

s237 - s210 + 9.394622z237z210z1 <= 8.20
s237 - s313 + 9.399104z237z313z1 <= 8.20
s330 - s15 + 8.455867z330z15z1 <= 6.95
s330 - s224 + 8.470675z330z224z1 <= 6.95
s330 - s77 + 8.517024z330z77z1 <= 6.95
s330 - s83 + 8.482390z330z83z1 <= 6.95
s330 - s312 + 8.515722z330z312z1 <= 6.95
s330 - s169 + 8.535820z330z169z1 <= 6.95
s330 - s6 + 8.557678z330z6z1 <= 6.95
s330 - s265 + 8.566400z330z265z1 <= 6.95
s330 - s47 + 8.589304z330z47z1 <= 6.95
s330 - s185 + 8.425424z330z185z1 <= 6.95
s330 - s255 + 8.587766z330z255z1 <= 6.95
s330 - s18 + 8.433077z330z18z1 <= 6.95
s330 - s25 + 8.583973z330z25z1 <= 6.95
s330 - s210 + 8.592370z330z210z1 <= 6.95
s330 - s213 + 8.453918z330z213z1 <= 6.95
s330 - s313 + 8.591536z330z313z1 <= 6.95
s52 - s77 + 8.803172z52z77z3 <= 7.35
s52 - s119 + 8.809790z52z119z3 <= 7.35
s52 - s312 + 8.783585z52z312z3 <= 7.35
s52 - s161 + 8.766550z52z161z3 <= 7.35
s52 - s6 + 8.830530z52z6z3 <= 7.35
s52 - s18 + 8.949975z52z18z3 <= 7.35
s52 - s210 + 8.832237z52z210z3 <= 7.35
s171 - s169 + 8.928244z171z169z1 <= 7.43
s171 - s169 + 8.928244z171z169z2 <= 7.43
s171 - s161 + 8.889027z171z161z2 <= 7.43
s171 - s6 + 8.954910z171z6z1 <= 7.43
s171 - s265 + 8.942672z171z265z1 <= 7.43
s171 - s47 + 8.975568z171z47z1 <= 7.43
s171 - s47 + 8.975568z171z47z2 <= 7.43
s171 - s185 + 9.073415z171z185z1 <= 7.43
s171 - s255 + 8.969284z171z255z1 <= 7.43
s171 - s18 + 9.082812z171z18z1 <= 7.43
s171 - s25 + 8.951006z171z25z1 <= 7.43
s171 - s25 + 8.951006z171z25z2 <= 7.43
s171 - s210 + 8.952554z171z210z1 <= 7.43
s171 - s213 + 9.102409z171z213z1 <= 7.43
s171 - s213 + 9.102409z171z213z2 <= 7.43
s171 - s313 + 8.946856z171z313z1 <= 7.43
s166 - s77 + 8.812140z166z77z1 <= 7.32
s166 - s312 + 8.789988z166z312z1 <= 7.32
s166 - s169 + 8.809637z166z169z1 <= 7.32
s166 - s6 + 8.836283z166z6z1 <= 7.32
s166 - s265 + 8.822738z166z265z1 <= 7.32
s166 - s47 + 8.855935z166z47z1 <= 7.32
s166 - s185 + 8.969227z166z185z1 <= 7.32
s166 - s255 + 8.849396z166z255z1 <= 7.32
s166 - s18 + 8.978642z166z18z1 <= 7.32
s166 - s25 + 8.830322z166z25z1 <= 7.32
s166 - s210 + 8.831371z166z210z1 <= 7.32
s166 - s213 + 8.998002z166z213z1 <= 7.32
s166 - s313 + 8.825397z166z313z1 <= 7.32
s78 - s265 + 9.191245z78z265z1 <= 7.59
s78 - s47 + 9.212414z78z47z1 <= 7.59
s78 - s47 + 9.212414z78z47z2 <= 7.59
s78 - s185 + 9.022509z78z185z1 <= 7.59
s78 - s255 + 9.211490z78z255z1 <= 7.59
s78 - s18 + 9.029890z78z18z1 <= 7.59
s78 - s25 + 9.209566z78z25z1 <= 7.59
s78 - s25 + 9.209566z78z25z2 <= 7.59
s78 - s210 + 9.218634z78z210z1 <= 7.59
s78 - s213 + 9.050567z78z213z1 <= 7.59
s78 - s213 + 9.050567z78z213z2 <= 7.59
s78 - s313 + 9.218422z78z313z1 <= 7.59
s204 - s77 + 8.821864z204z77z3 <= 7.32
s204 - s119 + 8.827535z204z119z2 <= 7.32
s204 - s119 + 8.827535z204z119z3 <= 7.32
s204 - s312 + 8.798738z204z312z3 <= 7.32
s204 - s169 + 8.818063z204z169z2 <= 7.32
s204 - s161 + 8.776640z204z161z2 <= 7.32
s204 - s161 + 8.776640z204z161z3 <= 7.32
s204 - s6 + 8.844646z204z6z3 <= 7.32
s204 - s47 + 8.863275z204z47z2 <= 7.32
s204 - s18 + 8.997631z204z18z3 <= 7.32
s204 - s25 + 8.836617z204z25z2 <= 7.32
s204 - s210 + 8.837135z204z210z3 <= 7.32
s204 - s213 + 9.016860z204z213z2 <= 7.32
s17 - s213 + 9.286474z17z213z2 <= 7.87
s19 - s47 + 9.248652z19z47z1 <= 7.65
s19 - s185 + 9.023819z19z185z1 <= 7.65
s19 - s255 + 9.248652z19z255z1 <= 7.65
s19 - s18 + 9.030885z19z18z1 <= 7.65
s19 - s18 + 9.030885z19z18z3 <= 7.65
s19 - s25 + 9.249542z19z25z1 <= 7.65
s19 - s210 + 9.259541z19z210z1 <= 7.65
s19 - s210 + 9.259541z19z210z3 <= 7.65
s19 - s213 + 9.051336z19z213z1 <= 7.65
s19 - s313 + 9.260269z19z313z1 <= 7.65
s289 - s213 + 9.315081z289z213z2 <= 8.07
s148 - s185 + 9.280328z148z185z1 <= 8.08
s148 - s18 + 9.289249z148z18z1 <= 8.08
s148 - s18 + 9.289249z148z18z3 <= 8.08
s148 - s213 + 9.310139z148z213z1 <= 8.08
s76 - s119 + 9.877497z76z119z2 <= 8.77
s76 - s169 + 9.904164z76z169z2 <= 8.77
s76 - s161 + 9.947515z76z161z2 <= 8.77
s76 - s47 + 9.917272z76z47z2 <= 8.77
s76 - s25 + 9.947889z76z25z2 <= 8.77
s76 - s213 + 10.079265z76z213z2 <= 8.77
s259 - s119 + 9.853534z259z119z2 <= 8.77
s259 - s169 + 9.880354z259z169z2 <= 8.77
s259 - s161 + 9.923479z259z161z2 <= 8.77
s259 - s47 + 9.896667z259z47z2 <= 8.77
s259 - s25 + 9.925635z259z25z2 <= 8.77
s259 - s213 + 10.097754z259z213z2 <= 8.77
s15 - s83 + 9.806666z15z83z1 <= 8.78
s15 - s6 + 10.066667z15z6z1 <= 8.78
s15 - s265 + 10.100277z15z265z1 <= 8.78
s15 - s47 + 10.093971z15z47z1 <= 8.78
s15 - s185 + 9.910979z15z185z1 <= 8.78
s15 - s255 + 10.100277z15z255z1 <= 8.78
s15 - s18 + 9.915974z15z18z1 <= 8.78
s15 - s25 + 10.120065z15z25z1 <= 8.78
s15 - s210 + 10.133396z15z210z1 <= 8.78
s15 - s213 + 9.920158z15z213z1 <= 8.78
s15 - s313 + 10.140246z15z313z1 <= 8.78
s224 - s83 + 9.798856z224z83z1 <= 8.78
s224 - s6 + 10.053658z224z6z1 <= 8.78
s224 - s265 + 10.087824z224z265z1 <= 8.78
s224 - s47 + 10.080074z224z47z1 <= 8.78
s224 - s185 + 9.927572z224z185z1 <= 8.78
s224 - s255 + 10.086666z224z255z1 <= 8.78
s224 - s18 + 9.932023z224z18z1 <= 8.78
s224 - s25 + 10.107278z224z25z1 <= 8.78
s224 - s210 + 10.120587z224z210z1 <= 8.78
s224 - s213 + 9.934632z224z213z1 <= 8.78
s224 - s313 + 10.127690z224z313z1 <= 8.78
s77 - s119 + 9.849428z77z119z3 <= 8.84
s77 - s312 + 9.873333z77z312z1 <= 8.84
s77 - s312 + 9.873333z77z312z3 <= 8.84
s77 - s169 + 9.873333z77z169z1 <= 8.84
s77 - s161 + 9.912111z77z161z3 <= 8.84
s77 - s6 + 9.882688z77z6z1 <= 8.84
s77 - s6 + 9.882688z77z6z3 <= 8.84
s77 - s265 + 9.907988z77z265z1 <= 8.84
s77 - s47 + 9.916012z77z47z1 <= 8.84
s77 - s185 + 10.220058z77z185z1 <= 8.84
s77 - s255 + 9.917747z77z255z1 <= 8.84
s77 - s18 + 10.226666z77z18z1 <= 8.84
s77 - s18 + 10.226666z77z18z3 <= 8.84
s77 - s25 + 9.928945z77z25z1 <= 8.84
s77 - s210 + 9.941980z77z210z1 <= 8.84
s77 - s210 + 9.941980z77z210z3 <= 8.84
s77 - s213 + 10.233842z77z213z1 <= 8.84
s77 - s313 + 9.947496z77z313z1 <= 8.84
s83 - s265 + 10.182490z83z265z1 <= 8.86
s83 - s47 + 10.173404z83z47z1 <= 8.86
s83 - s185 + 10.000158z83z185z1 <= 8.86
s83 - s255 + 10.180277z83z255z1 <= 8.86
s83 - s18 + 10.003604z83z18z1 <= 8.86
s83 - s25 + 10.201630z83z25z1 <= 8.86
s83 - s210 + 10.214902z83z210z1 <= 8.86
s83 - s213 + 10.003913z83z213z1 <= 8.86
s83 - s313 + 10.222215z83z313z1 <= 8.86
s89 - s47 + 10.129650z89z47z2 <= 8.86
s89 - s25 + 10.160813z89z25z2 <= 8.86
s89 - s213 + 10.058214z89z213z2 <= 8.86
s119 - s169 + 9.917488z119z169z2 <= 8.89
s119 - s161 + 9.960868z119z161z2 <= 8.89
s119 - s161 + 9.960868z119z161z3 <= 8.89
s119 - s6 + 9.923334z119z6z3 <= 8.89
s119 - s47 + 9.956667z119z47z2 <= 8.89
s119 - s18 + 10.283390z119z18z3 <= 8.89
s119 - s25 + 9.971104z119z25z2 <= 8.89
s119 - s210 + 9.984282z119z210z3 <= 8.89
s119 - s213 + 10.290222z119z213z2 <= 8.89
s312 - s169 + 9.921082z312z169z1 <= 8.90
s312 - s161 + 9.938872z312z161z3 <= 8.90
s312 - s6 + 9.947140z312z6z1 <= 8.90
s312 - s6 + 9.947140z312z6z3 <= 8.90
s312 - s265 + 9.952068z312z265z1 <= 8.90
s312 - s47 + 9.974535z312z47z1 <= 8.90
s312 - s255 + 9.972111z312z255z1 <= 8.90
s312 - s18 + 10.313816z312z18z1 <= 8.90
s312 - s18 + 10.313816z312z18z3 <= 8.90
s312 - s25 + 9.972111z312z25z1 <= 8.90
s312 - s210 + 9.983533z312z210z1 <= 8.90
s312 - s210 + 9.983533z312z210z3 <= 8.90
s312 - s213 + 10.321900z312z213z1 <= 8.90
s312 - s313 + 9.986667z312z313z1 <= 8.90
s169 - s6 + 10.026667z169z6z1 <= 9.00
s169 - s265 + 10.035901z169z265z1 <= 9.00
s169 - s47 + 10.053748z169z47z1 <= 9.00
s169 - s47 + 10.053748z169z47z2 <= 9.00
s169 - s255 + 10.052069z169z255z1 <= 9.00
s169 - s25 + 10.056960z169z25z1 <= 9.00
s169 - s25 + 10.056960z169z25z2 <= 9.00
s169 - s210 + 10.069602z169z210z1 <= 9.00
s169 - s213 + 10.427135z169z213z1 <= 9.00
s169 - s213 + 10.427135z169z213z2 <= 9.00
s169 - s313 + 10.074535z169z313z1 <= 9.00
s161 - s47 + 10.116667z161z47z2 <= 9.03
s161 - s25 + 10.095659z161z25z2 <= 9.03
s161 - s210 + 10.102111z161z210z3 <= 9.03
s6 - s265 + 10.115901z6z265z1 <= 9.08
s6 - s47 + 10.113333z6z47z1 <= 9.08
s6 - s255 + 10.115901z6z255z1 <= 9.08
s6 - s25 + 10.133748z6z25z1 <= 9.08
s6 - s210 + 10.146999z6z210z1 <= 9.08
s6 - s210 + 10.146999z6z210z3 <= 9.08
s6 - s313 + 10.154535z6z313z1 <= 9.08
s265 - s47 + 10.263993z265z47z1 <= 9.23
s265 - s255 + 10.256666z265z255z1 <= 9.23
s265 - s25 + 10.251081z265z25z1 <= 9.23
s265 - s210 + 10.263993z265z210z1 <= 9.23
s265 - s313 + 10.270000z265z313z1 <= 9.23
s47 - s255 + 10.299428z47z255z1 <= 9.29
s47 - s25 + 10.327712z47z25z1 <= 9.29
s47 - s25 + 10.327712z47z25z2 <= 9.29
s47 - s210 + 10.338074z47z210z1 <= 9.29
s47 - s313 + 10.347349z47z313z1 <= 9.29
s185 - s18 + 10.309428z185z18z1 <= 9.30
s185 - s213 + 10.329815z185z213z1 <= 9.30
s255 - s25 + 10.338284z255z25z1 <= 9.31
s255 - s210 + 10.348873z255z210z1 <= 9.31
s255 - s313 + 10.358074z255z313z1 <= 9.31
s18 - s213 + 10.391082z18z213z1 <= 9.37
s25 - s210 + 10.393333z25z210z1 <= 9.38
s25 - s313 + 10.401082z25z313z1 <= 9.38
s210 - s313 + 10.479428z210z313z1 <= 9.47

x237x210x1 - 1z237z210z1 <= 0
x237x313x1 - 2z237z313z1 <= 0
x330x15x1 - 2z330z15z1 <= 0
x330x224x1 - 2z330z224z1 <= 0
x330x77x1 - 1z330z77z1 <= 0
x330x83x1 - 2z330z83z1 <= 0
x330x312x1 - 1z330z312z1 <= 0
x330x169x1 - 1z330z169z1 <= 0
x330x6x1 - 1z330z6z1 <= 0
x330x265x1 - 2z330z265z1 <= 0
x330x47x1 - 1z330z47z1 <= 0
x330x185x1 - 2z330z185z1 <= 0
x330x255x1 - 2z330z255z1 <= 0
x330x18x1 - 1z330z18z1 <= 0
x330x25x1 - 1z330z25z1 <= 0
x330x210x1 - 1z330z210z1 <= 0
x330x213x1 - 1z330z213z1 <= 0
x330x313x1 - 2z330z313z1 <= 0
x52x77x3 - 1z52z77z3 <= 0
x52x119x3 - 1z52z119z3 <= 0
x52x312x3 - 1z52z312z3 <= 0
x52x161x3 - 1z52z161z3 <= 0
x52x6x3 - 1z52z6z3 <= 0
x52x18x3 - 1z52z18z3 <= 0
x52x210x3 - 1z52z210z3 <= 0
x171x169x1 - 1z171z169z1 <= 0
x171x169x2 - 1z171z169z2 <= 0
x171x161x2 - 1z171z161z2 <= 0
x171x6x1 - 1z171z6z1 <= 0
x171x265x1 - 2z171z265z1 <= 0
x171x47x1 - 1z171z47z1 <= 0
x171x47x2 - 1z171z47z2 <= 0
x171x185x1 - 2z171z185z1 <= 0
x171x255x1 - 2z171z255z1 <= 0
x171x18x1 - 1z171z18z1 <= 0
x171x25x1 - 1z171z25z1 <= 0
x171x25x2 - 1z171z25z2 <= 0
x171x210x1 - 1z171z210z1 <= 0
x171x213x1 - 1z171z213z1 <= 0
x171x213x2 - 1z171z213z2 <= 0
x171x313x1 - 2z171z313z1 <= 0
x166x77x1 - 1z166z77z1 <= 0
x166x312x1 - 1z166z312z1 <= 0
x166x169x1 - 1z166z169z1 <= 0
x166x6x1 - 1z166z6z1 <= 0
x166x265x1 - 2z166z265z1 <= 0
x166x47x1 - 1z166z47z1 <= 0
x166x185x1 - 2z166z185z1 <= 0
x166x255x1 - 2z166z255z1 <= 0
x166x18x1 - 1z166z18z1 <= 0
x166x25x1 - 1z166z25z1 <= 0
x166x210x1 - 1z166z210z1 <= 0
x166x213x1 - 1z166z213z1 <= 0
x166x313x1 - 2z166z313z1 <= 0
x78x265x1 - 2z78z265z1 <= 0
x78x47x1 - 1z78z47z1 <= 0
x78x47x2 - 1z78z47z2 <= 0
x78x185x1 - 2z78z185z1 <= 0
x78x255x1 - 2z78z255z1 <= 0
x78x18x1 - 1z78z18z1 <= 0
x78x25x1 - 1z78z25z1 <= 0
x78x25x2 - 1z78z25z2 <= 0
x78x210x1 - 1z78z210z1 <= 0
x78x213x1 - 1z78z213z1 <= 0
x78x213x2 - 1z78z213z2 <= 0
x78x313x1 - 2z78z313z1 <= 0
x204x77x3 - 1z204z77z3 <= 0
x204x119x2 - 1z204z119z2 <= 0
x204x119x3 - 1z204z119z3 <= 0
x204x312x3 - 1z204z312z3 <= 0
x204x169x2 - 1z204z169z2 <= 0
x204x161x2 - 1z204z161z2 <= 0
x204x161x3 - 1z204z161z3 <= 0
x204x6x3 - 1z204z6z3 <= 0
x204x47x2 - 1z204z47z2 <= 0
x204x18x3 - 1z204z18z3 <= 0
x204x25x2 - 1z204z25z2 <= 0
x204x210x3 - 1z204z210z3 <= 0
x204x213x2 - 1z204z213z2 <= 0
x17x213x2 - 1z17z213z2 <= 0
x19x47x1 - 1z19z47z1 <= 0
x19x185x1 - 2z19z185z1 <= 0
x19x255x1 - 2z19z255z1 <= 0
x19x18x1 - 1z19z18z1 <= 0
x19x18x3 - 1z19z18z3 <= 0
x19x25x1 - 1z19z25z1 <= 0
x19x210x1 - 1z19z210z1 <= 0
x19x210x3 - 1z19z210z3 <= 0
x19x213x1 - 1z19z213z1 <= 0
x19x313x1 - 2z19z313z1 <= 0
x289x213x2 - 1z289z213z2 <= 0
x148x185x1 - 2z148z185z1 <= 0
x148x18x1 - 1z148z18z1 <= 0
x148x18x3 - 1z148z18z3 <= 0
x148x213x1 - 1z148z213z1 <= 0
x76x119x2 - 1z76z119z2 <= 0
x76x169x2 - 1z76z169z2 <= 0
x76x161x2 - 1z76z161z2 <= 0
x76x47x2 - 1z76z47z2 <= 0
x76x25x2 - 1z76z25z2 <= 0
x76x213x2 - 1z76z213z2 <= 0
x76x0x2 <= 2
x259x119x2 - 1z259z119z2 <= 0
x259x169x2 - 1z259z169z2 <= 0
x259x161x2 - 1z259z161z2 <= 0
x259x47x2 - 1z259z47z2 <= 0
x259x25x2 - 1z259z25z2 <= 0
x259x213x2 - 1z259z213z2 <= 0
x259x0x2 <= 2
x15x83x1 - 2z15z83z1 <= 0
x15x6x1 - 1z15z6z1 <= 0
x15x265x1 - 2z15z265z1 <= 0
x15x47x1 - 1z15z47z1 <= 0
x15x185x1 - 2z15z185z1 <= 0
x15x255x1 - 2z15z255z1 <= 0
x15x18x1 - 1z15z18z1 <= 0
x15x25x1 - 1z15z25z1 <= 0
x15x210x1 - 1z15z210z1 <= 0
x15x213x1 - 1z15z213z1 <= 0
x15x313x1 - 2z15z313z1 <= 0
x15x0x1 <= 2
x224x83x1 - 2z224z83z1 <= 0
x224x6x1 - 1z224z6z1 <= 0
x224x265x1 - 2z224z265z1 <= 0
x224x47x1 - 1z224z47z1 <= 0
x224x185x1 - 2z224z185z1 <= 0
x224x255x1 - 2z224z255z1 <= 0
x224x18x1 - 1z224z18z1 <= 0
x224x25x1 - 1z224z25z1 <= 0
x224x210x1 - 1z224z210z1 <= 0
x224x213x1 - 1z224z213z1 <= 0
x224x313x1 - 2z224z313z1 <= 0
x224x0x1 <= 2
x77x119x3 - 1z77z119z3 <= 0
x77x312x1 - 1z77z312z1 <= 0
x77x312x3 - 1z77z312z3 <= 0
x77x169x1 - 1z77z169z1 <= 0
x77x161x3 - 1z77z161z3 <= 0
x77x6x1 - 1z77z6z1 <= 0
x77x6x3 - 1z77z6z3 <= 0
x77x265x1 - 2z77z265z1 <= 0
x77x47x1 - 1z77z47z1 <= 0
x77x185x1 - 2z77z185z1 <= 0
x77x255x1 - 2z77z255z1 <= 0
x77x18x1 - 1z77z18z1 <= 0
x77x18x3 - 1z77z18z3 <= 0
x77x25x1 - 1z77z25z1 <= 0
x77x210x1 - 1z77z210z1 <= 0
x77x210x3 - 1z77z210z3 <= 0
x77x213x1 - 1z77z213z1 <= 0
x77x313x1 - 2z77z313z1 <= 0
x77x0x1 <= 1
x77x0x3 <= 1
x83x265x1 - 2z83z265z1 <= 0
x83x47x1 - 1z83z47z1 <= 0
x83x185x1 - 2z83z185z1 <= 0
x83x255x1 - 2z83z255z1 <= 0
x83x18x1 - 1z83z18z1 <= 0
x83x25x1 - 1z83z25z1 <= 0
x83x210x1 - 1z83z210z1 <= 0
x83x213x1 - 1z83z213z1 <= 0
x83x313x1 - 2z83z313z1 <= 0
x83x0x1 <= 2
x89x47x2 - 1z89z47z2 <= 0
x89x25x2 - 1z89z25z2 <= 0
x89x213x2 - 1z89z213z2 <= 0
x89x0x2 <= 2
x119x169x2 - 1z119z169z2 <= 0
x119x161x2 - 1z119z161z2 <= 0
x119x161x3 - 1z119z161z3 <= 0
x119x6x3 - 1z119z6z3 <= 0
x119x47x2 - 1z119z47z2 <= 0
x119x18x3 - 1z119z18z3 <= 0
x119x25x2 - 1z119z25z2 <= 0
x119x210x3 - 1z119z210z3 <= 0
x119x213x2 - 1z119z213z2 <= 0
x119x0x2 <= 1
x119x0x3 <= 1
x312x169x1 - 1z312z169z1 <= 0
x312x161x3 - 1z312z161z3 <= 0
x312x6x1 - 1z312z6z1 <= 0
x312x6x3 - 1z312z6z3 <= 0
x312x265x1 - 2z312z265z1 <= 0
x312x47x1 - 1z312z47z1 <= 0
x312x255x1 - 2z312z255z1 <= 0
x312x18x1 - 1z312z18z1 <= 0
x312x18x3 - 1z312z18z3 <= 0
x312x25x1 - 1z312z25z1 <= 0
x312x210x1 - 1z312z210z1 <= 0
x312x210x3 - 1z312z210z3 <= 0
x312x213x1 - 1z312z213z1 <= 0
x312x313x1 - 2z312z313z1 <= 0
x312x0x1 <= 1
x312x0x3 <= 1
x169x6x1 - 1z169z6z1 <= 0
x169x265x1 - 2z169z265z1 <= 0
x169x47x1 - 1z169z47z1 <= 0
x169x47x2 - 1z169z47z2 <= 0
x169x255x1 - 2z169z255z1 <= 0
x169x25x1 - 1z169z25z1 <= 0
x169x25x2 - 1z169z25z2 <= 0
x169x210x1 - 1z169z210z1 <= 0
x169x213x1 - 1z169z213z1 <= 0
x169x213x2 - 1z169z213z2 <= 0
x169x313x1 - 2z169z313z1 <= 0
x169x0x1 <= 1
x169x0x2 <= 1
x161x47x2 - 1z161z47z2 <= 0
x161x25x2 - 1z161z25z2 <= 0
x161x210x3 - 1z161z210z3 <= 0
x161x0x2 <= 1
x161x0x3 <= 1
x6x265x1 - 2z6z265z1 <= 0
x6x47x1 - 1z6z47z1 <= 0
x6x255x1 - 2z6z255z1 <= 0
x6x25x1 - 1z6z25z1 <= 0
x6x210x1 - 1z6z210z1 <= 0
x6x210x3 - 1z6z210z3 <= 0
x6x313x1 - 2z6z313z1 <= 0
x6x0x1 <= 1
x6x0x3 <= 1
x265x47x1 - 1z265z47z1 <= 0
x265x255x1 - 2z265z255z1 <= 0
x265x25x1 - 1z265z25z1 <= 0
x265x210x1 - 1z265z210z1 <= 0
x265x313x1 - 2z265z313z1 <= 0
x265x0x1 <= 2
x47x255x1 - 2z47z255z1 <= 0
x47x25x1 - 1z47z25z1 <= 0
x47x25x2 - 1z47z25z2 <= 0
x47x210x1 - 1z47z210z1 <= 0
x47x313x1 - 2z47z313z1 <= 0
x47x0x1 <= 1
x47x0x2 <= 1
x185x18x1 - 1z185z18z1 <= 0
x185x213x1 - 1z185z213z1 <= 0
x185x0x1 <= 2
x255x25x1 - 1z255z25z1 <= 0
x255x210x1 - 1z255z210z1 <= 0
x255x313x1 - 2z255z313z1 <= 0
x255x0x1 <= 2
x18x213x1 - 1z18z213z1 <= 0
x18x0x1 <= 1
x18x0x3 <= 1
x25x210x1 - 1z25z210z1 <= 0
x25x313x1 - 2z25z313z1 <= 0
x25x0x1 <= 1
x25x0x2 <= 1
x210x313x1 - 2z210z313z1 <= 0
x210x0x1 <= 1
x210x0x3 <= 1
x213x0x1 <= 1
x213x0x2 <= 1
x313x0x1 <= 2

s15 - 6.00z330z15z1 >= 0
s224 - 6.00z330z224z1 >= 0
s77 - 6.00z330z77z1 >= 0
s77 - 6.00z52z77z3 >= 0
s77 - 6.00z166z77z1 >= 0
s77 - 6.00z204z77z3 >= 0
s83 - 6.00z330z83z1 >= 0
s83 - 6.00z15z83z1 >= 0
s83 - 6.00z224z83z1 >= 0
s119 - 6.00z52z119z3 >= 0
s119 - 6.00z204z119z2 >= 0
s119 - 6.00z204z119z3 >= 0
s119 - 6.00z76z119z2 >= 0
s119 - 6.00z259z119z2 >= 0
s119 - 6.00z77z119z3 >= 0
s312 - 6.00z330z312z1 >= 0
s312 - 6.00z52z312z3 >= 0
s312 - 6.00z166z312z1 >= 0
s312 - 6.00z204z312z3 >= 0
s312 - 6.00z77z312z1 >= 0
s312 - 6.00z77z312z3 >= 0
s169 - 6.00z330z169z1 >= 0
s169 - 6.00z171z169z1 >= 0
s169 - 6.00z171z169z2 >= 0
s169 - 6.00z166z169z1 >= 0
s169 - 6.00z204z169z2 >= 0
s169 - 6.00z76z169z2 >= 0
s169 - 6.00z259z169z2 >= 0
s169 - 6.00z77z169z1 >= 0
s169 - 6.00z119z169z2 >= 0
s169 - 6.00z312z169z1 >= 0
s161 - 6.00z52z161z3 >= 0
s161 - 6.00z171z161z2 >= 0
s161 - 6.00z204z161z2 >= 0
s161 - 6.00z204z161z3 >= 0
s161 - 6.00z76z161z2 >= 0
s161 - 6.00z259z161z2 >= 0
s161 - 6.00z77z161z3 >= 0
s161 - 6.00z119z161z2 >= 0
s161 - 6.00z119z161z3 >= 0
s161 - 6.00z312z161z3 >= 0
s6 - 6.00z330z6z1 >= 0
s6 - 6.00z52z6z3 >= 0
s6 - 6.00z171z6z1 >= 0
s6 - 6.00z166z6z1 >= 0
s6 - 6.00z204z6z3 >= 0
s6 - 6.00z15z6z1 >= 0
s6 - 6.00z224z6z1 >= 0
s6 - 6.00z77z6z1 >= 0
s6 - 6.00z77z6z3 >= 0
s6 - 6.00z119z6z3 >= 0
s6 - 6.00z312z6z1 >= 0
s6 - 6.00z312z6z3 >= 0
s6 - 6.00z169z6z1 >= 0
s265 - 6.00z330z265z1 >= 0
s265 - 6.00z171z265z1 >= 0
s265 - 6.00z166z265z1 >= 0
s265 - 6.00z78z265z1 >= 0
s265 - 6.00z15z265z1 >= 0
s265 - 6.00z224z265z1 >= 0
s265 - 6.00z77z265z1 >= 0
s265 - 6.00z83z265z1 >= 0
s265 - 6.00z312z265z1 >= 0
s265 - 6.00z169z265z1 >= 0
s265 - 6.00z6z265z1 >= 0
s47 - 6.00z330z47z1 >= 0
s47 - 6.00z171z47z1 >= 0
s47 - 6.00z171z47z2 >= 0
s47 - 6.00z166z47z1 >= 0
s47 - 6.00z78z47z1 >= 0
s47 - 6.00z78z47z2 >= 0
s47 - 6.00z204z47z2 >= 0
s47 - 6.00z19z47z1 >= 0
s47 - 6.00z76z47z2 >= 0
s47 - 6.00z259z47z2 >= 0
s47 - 6.00z15z47z1 >= 0
s47 - 6.00z224z47z1 >= 0
s47 - 6.00z77z47z1 >= 0
s47 - 6.00z83z47z1 >= 0
s47 - 6.00z89z47z2 >= 0
s47 - 6.00z119z47z2 >= 0
s47 - 6.00z312z47z1 >= 0
s47 - 6.00z169z47z1 >= 0
s47 - 6.00z169z47z2 >= 0
s47 - 6.00z161z47z2 >= 0
s47 - 6.00z6z47z1 >= 0
s47 - 6.00z265z47z1 >= 0
s185 - 6.00z330z185z1 >= 0
s185 - 6.00z171z185z1 >= 0
s185 - 6.00z166z185z1 >= 0
s185 - 6.00z78z185z1 >= 0
s185 - 6.00z19z185z1 >= 0
s185 - 6.00z148z185z1 >= 0
s185 - 6.00z15z185z1 >= 0
s185 - 6.00z224z185z1 >= 0
s185 - 6.00z77z185z1 >= 0
s185 - 6.00z83z185z1 >= 0
s255 - 6.00z330z255z1 >= 0
s255 - 6.00z171z255z1 >= 0
s255 - 6.00z166z255z1 >= 0
s255 - 6.00z78z255z1 >= 0
s255 - 6.00z19z255z1 >= 0
s255 - 6.00z15z255z1 >= 0
s255 - 6.00z224z255z1 >= 0
s255 - 6.00z77z255z1 >= 0
s255 - 6.00z83z255z1 >= 0
s255 - 6.00z312z255z1 >= 0
s255 - 6.00z169z255z1 >= 0
s255 - 6.00z6z255z1 >= 0
s255 - 6.00z265z255z1 >= 0
s255 - 6.00z47z255z1 >= 0
s18 - 6.00z330z18z1 >= 0
s18 - 6.00z52z18z3 >= 0
s18 - 6.00z171z18z1 >= 0
s18 - 6.00z166z18z1 >= 0
s18 - 6.00z78z18z1 >= 0
s18 - 6.00z204z18z3 >= 0
s18 - 6.00z19z18z1 >= 0
s18 - 6.00z19z18z3 >= 0
s18 - 6.00z148z18z1 >= 0
s18 - 6.00z148z18z3 >= 0
s18 - 6.00z15z18z1 >= 0
s18 - 6.00z224z18z1 >= 0
s18 - 6.00z77z18z1 >= 0
s18 - 6.00z77z18z3 >= 0
s18 - 6.00z83z18z1 >= 0
s18 - 6.00z119z18z3 >= 0
s18 - 6.00z312z18z1 >= 0
s18 - 6.00z312z18z3 >= 0
s18 - 6.00z185z18z1 >= 0
s25 - 6.00z330z25z1 >= 0
s25 - 6.00z171z25z1 >= 0
s25 - 6.00z171z25z2 >= 0
s25 - 6.00z166z25z1 >= 0
s25 - 6.00z78z25z1 >= 0
s25 - 6.00z78z25z2 >= 0
s25 - 6.00z204z25z2 >= 0
s25 - 6.00z19z25z1 >= 0
s25 - 6.00z76z25z2 >= 0
s25 - 6.00z259z25z2 >= 0
s25 - 6.00z15z25z1 >= 0
s25 - 6.00z224z25z1 >= 0
s25 - 6.00z77z25z1 >= 0
s25 - 6.00z83z25z1 >= 0
s25 - 6.00z89z25z2 >= 0
s25 - 6.00z119z25z2 >= 0
s25 - 6.00z312z25z1 >= 0
s25 - 6.00z169z25z1 >= 0
s25 - 6.00z169z25z2 >= 0
s25 - 6.00z161z25z2 >= 0
s25 - 6.00z6z25z1 >= 0
s25 - 6.00z265z25z1 >= 0
s25 - 6.00z47z25z1 >= 0
s25 - 6.00z47z25z2 >= 0
s25 - 6.00z255z25z1 >= 0
s210 - 6.00z237z210z1 >= 0
s210 - 6.00z330z210z1 >= 0
s210 - 6.00z52z210z3 >= 0
s210 - 6.00z171z210z1 >= 0
s210 - 6.00z166z210z1 >= 0
s210 - 6.00z78z210z1 >= 0
s210 - 6.00z204z210z3 >= 0
s210 - 6.00z19z210z1 >= 0
s210 - 6.00z19z210z3 >= 0
s210 - 6.00z15z210z1 >= 0
s210 - 6.00z224z210z1 >= 0
s210 - 6.00z77z210z1 >= 0
s210 - 6.00z77z210z3 >= 0
s210 - 6.00z83z210z1 >= 0
s210 - 6.00z119z210z3 >= 0
s210 - 6.00z312z210z1 >= 0
s210 - 6.00z312z210z3 >= 0
s210 - 6.00z169z210z1 >= 0
s210 - 6.00z161z210z3 >= 0
s210 - 6.00z6z210z1 >= 0
s210 - 6.00z6z210z3 >= 0
s210 - 6.00z265z210z1 >= 0
s210 - 6.00z47z210z1 >= 0
s210 - 6.00z255z210z1 >= 0
s210 - 6.00z25z210z1 >= 0
s213 - 6.00z330z213z1 >= 0
s213 - 6.00z171z213z1 >= 0
s213 - 6.00z171z213z2 >= 0
s213 - 6.00z166z213z1 >= 0
s213 - 6.00z78z213z1 >= 0
s213 - 6.00z78z213z2 >= 0
s213 - 6.00z204z213z2 >= 0
s213 - 6.00z17z213z2 >= 0
s213 - 6.00z19z213z1 >= 0
s213 - 6.00z289z213z2 >= 0
s213 - 6.00z148z213z1 >= 0
s213 - 6.00z76z213z2 >= 0
s213 - 6.00z259z213z2 >= 0
s213 - 6.00z15z213z1 >= 0
s213 - 6.00z224z213z1 >= 0
s213 - 6.00z77z213z1 >= 0
s213 - 6.00z83z213z1 >= 0
s213 - 6.00z89z213z2 >= 0
s213 - 6.00z119z213z2 >= 0
s213 - 6.00z312z213z1 >= 0
s213 - 6.00z169z213z1 >= 0
s213 - 6.00z169z213z2 >= 0
s213 - 6.00z185z213z1 >= 0
s213 - 6.00z18z213z1 >= 0
s313 - 6.00z237z313z1 >= 0
s313 - 6.00z330z313z1 >= 0
s313 - 6.00z171z313z1 >= 0
s313 - 6.00z166z313z1 >= 0
s313 - 6.00z78z313z1 >= 0
s313 - 6.00z19z313z1 >= 0
s313 - 6.00z15z313z1 >= 0
s313 - 6.00z224z313z1 >= 0
s313 - 6.00z77z313z1 >= 0
s313 - 6.00z83z313z1 >= 0
s313 - 6.00z312z313z1 >= 0
s313 - 6.00z169z313z1 >= 0
s313 - 6.00z6z313z1 >= 0
s313 - 6.00z265z313z1 >= 0
s313 - 6.00z47z313z1 >= 0
s313 - 6.00z255z313z1 >= 0
s313 - 6.00z25z313z1 >= 0
s313 - 6.00z210z313z1 >= 0

Bounds
s237 = 8.198549
s330 = 6.953030
s52 = 7.349790
s171 = 7.434910
s166 = 7.322560
s78 = 7.586670
s204 = 7.323110
s17 = 7.871210
s19 = 7.649950
s28 = 8.021890
s289 = 8.073420
s67 = 8.231070
s148 = 8.080550
s317 = 8.243830
7.770000 <= s76 <= 8.770000
7.770000 <= s259 <= 8.770000
7.780000 <= s15 <= 8.780000
7.780000 <= s224 <= 8.780000
7.840000 <= s77 <= 8.840000
7.860000 <= s83 <= 8.860000
7.860000 <= s89 <= 8.860000
7.890000 <= s119 <= 8.890000
7.900000 <= s312 <= 8.900000
8.000000 <= s169 <= 9.000000
8.030000 <= s161 <= 9.030000
8.080000 <= s6 <= 9.080000
8.230000 <= s265 <= 9.230000
8.290000 <= s47 <= 9.290000
8.300000 <= s185 <= 9.300000
8.310000 <= s255 <= 9.310000
8.370000 <= s18 <= 9.370000
8.380000 <= s25 <= 9.380000
8.470000 <= s210 <= 9.470000
8.470000 <= s213 <= 9.470000
8.500000 <= s313 <= 9.500000

General
x237x210x1 x237x313x1 
x330x15x1 x330x224x1 x330x77x1 x330x83x1 x330x312x1 x330x169x1 x330x6x1 x330x265x1 x330x47x1 x330x185x1 x330x255x1 x330x18x1 x330x25x1 x330x210x1 x330x213x1 x330x313x1 
x52x77x3 x52x119x3 x52x312x3 x52x161x3 x52x6x3 x52x18x3 x52x210x3 
x171x169x1 x171x169x2 x171x161x2 x171x6x1 x171x265x1 x171x47x1 x171x47x2 x171x185x1 x171x255x1 x171x18x1 x171x25x1 x171x25x2 x171x210x1 x171x213x1 x171x213x2 x171x313x1 
x166x77x1 x166x312x1 x166x169x1 x166x6x1 x166x265x1 x166x47x1 x166x185x1 x166x255x1 x166x18x1 x166x25x1 x166x210x1 x166x213x1 x166x313x1 
x78x265x1 x78x47x1 x78x47x2 x78x185x1 x78x255x1 x78x18x1 x78x25x1 x78x25x2 x78x210x1 x78x213x1 x78x213x2 x78x313x1 
x204x77x3 x204x119x2 x204x119x3 x204x312x3 x204x169x2 x204x161x2 x204x161x3 x204x6x3 x204x47x2 x204x18x3 x204x25x2 x204x210x3 x204x213x2 
x17x213x2 
x19x47x1 x19x185x1 x19x255x1 x19x18x1 x19x18x3 x19x25x1 x19x210x1 x19x210x3 x19x213x1 x19x313x1 

x289x213x2 

x148x185x1 x148x18x1 x148x18x3 x148x213x1 

x76x119x2 x76x169x2 x76x161x2 x76x47x2 x76x25x2 x76x213x2 x76x0x2 
x259x119x2 x259x169x2 x259x161x2 x259x47x2 x259x25x2 x259x213x2 x259x0x2 
x15x83x1 x15x6x1 x15x265x1 x15x47x1 x15x185x1 x15x255x1 x15x18x1 x15x25x1 x15x210x1 x15x213x1 x15x313x1 x15x0x1 
x224x83x1 x224x6x1 x224x265x1 x224x47x1 x224x185x1 x224x255x1 x224x18x1 x224x25x1 x224x210x1 x224x213x1 x224x313x1 x224x0x1 
x77x119x3 x77x312x1 x77x312x3 x77x169x1 x77x161x3 x77x6x1 x77x6x3 x77x265x1 x77x47x1 x77x185x1 x77x255x1 x77x18x1 x77x18x3 x77x25x1 x77x210x1 x77x210x3 x77x213x1 x77x313x1 x77x0x1 x77x0x3 
x83x265x1 x83x47x1 x83x185x1 x83x255x1 x83x18x1 x83x25x1 x83x210x1 x83x213x1 x83x313x1 x83x0x1 
x89x47x2 x89x25x2 x89x213x2 x89x0x2 
x119x169x2 x119x161x2 x119x161x3 x119x6x3 x119x47x2 x119x18x3 x119x25x2 x119x210x3 x119x213x2 x119x0x2 x119x0x3 
x312x169x1 x312x161x3 x312x6x1 x312x6x3 x312x265x1 x312x47x1 x312x255x1 x312x18x1 x312x18x3 x312x25x1 x312x210x1 x312x210x3 x312x213x1 x312x313x1 x312x0x1 x312x0x3 
x169x6x1 x169x265x1 x169x47x1 x169x47x2 x169x255x1 x169x25x1 x169x25x2 x169x210x1 x169x213x1 x169x213x2 x169x313x1 x169x0x1 x169x0x2 
x161x47x2 x161x25x2 x161x210x3 x161x0x2 x161x0x3 
x6x265x1 x6x47x1 x6x255x1 x6x25x1 x6x210x1 x6x210x3 x6x313x1 x6x0x1 x6x0x3 
x265x47x1 x265x255x1 x265x25x1 x265x210x1 x265x313x1 x265x0x1 
x47x255x1 x47x25x1 x47x25x2 x47x210x1 x47x313x1 x47x0x1 x47x0x2 
x185x18x1 x185x213x1 x185x0x1 
x255x25x1 x255x210x1 x255x313x1 x255x0x1 
x18x213x1 x18x0x1 x18x0x3 
x25x210x1 x25x313x1 x25x0x1 x25x0x2 
x210x313x1 x210x0x1 x210x0x3 
x213x0x1 x213x0x2 
x313x0x1 

Binaries
y76 y259 y15 y224 y77 y83 y89 y119 y312 y169 y161 y6 y265 y47 y185 y255 y18 y25 y210 y213 y313 
z237z210z1 z237z313z1 
z330z15z1 z330z224z1 z330z77z1 z330z83z1 z330z312z1 z330z169z1 z330z6z1 z330z265z1 z330z47z1 z330z185z1 z330z255z1 z330z18z1 z330z25z1 z330z210z1 z330z213z1 z330z313z1 
z52z77z3 z52z119z3 z52z312z3 z52z161z3 z52z6z3 z52z18z3 z52z210z3 
z171z169z1 z171z169z2 z171z161z2 z171z6z1 z171z265z1 z171z47z1 z171z47z2 z171z185z1 z171z255z1 z171z18z1 z171z25z1 z171z25z2 z171z210z1 z171z213z1 z171z213z2 z171z313z1 
z166z77z1 z166z312z1 z166z169z1 z166z6z1 z166z265z1 z166z47z1 z166z185z1 z166z255z1 z166z18z1 z166z25z1 z166z210z1 z166z213z1 z166z313z1 
z78z265z1 z78z47z1 z78z47z2 z78z185z1 z78z255z1 z78z18z1 z78z25z1 z78z25z2 z78z210z1 z78z213z1 z78z213z2 z78z313z1 
z204z77z3 z204z119z2 z204z119z3 z204z312z3 z204z169z2 z204z161z2 z204z161z3 z204z6z3 z204z47z2 z204z18z3 z204z25z2 z204z210z3 z204z213z2 
z17z213z2 
z19z47z1 z19z185z1 z19z255z1 z19z18z1 z19z18z3 z19z25z1 z19z210z1 z19z210z3 z19z213z1 z19z313z1 

z289z213z2 

z148z185z1 z148z18z1 z148z18z3 z148z213z1 

z76z119z2 z76z169z2 z76z161z2 z76z47z2 z76z25z2 z76z213z2 
z259z119z2 z259z169z2 z259z161z2 z259z47z2 z259z25z2 z259z213z2 
z15z83z1 z15z6z1 z15z265z1 z15z47z1 z15z185z1 z15z255z1 z15z18z1 z15z25z1 z15z210z1 z15z213z1 z15z313z1 
z224z83z1 z224z6z1 z224z265z1 z224z47z1 z224z185z1 z224z255z1 z224z18z1 z224z25z1 z224z210z1 z224z213z1 z224z313z1 
z77z119z3 z77z312z1 z77z312z3 z77z169z1 z77z161z3 z77z6z1 z77z6z3 z77z265z1 z77z47z1 z77z185z1 z77z255z1 z77z18z1 z77z18z3 z77z25z1 z77z210z1 z77z210z3 z77z213z1 z77z313z1 
z83z265z1 z83z47z1 z83z185z1 z83z255z1 z83z18z1 z83z25z1 z83z210z1 z83z213z1 z83z313z1 
z89z47z2 z89z25z2 z89z213z2 
z119z169z2 z119z161z2 z119z161z3 z119z6z3 z119z47z2 z119z18z3 z119z25z2 z119z210z3 z119z213z2 
z312z169z1 z312z161z3 z312z6z1 z312z6z3 z312z265z1 z312z47z1 z312z255z1 z312z18z1 z312z18z3 z312z25z1 z312z210z1 z312z210z3 z312z213z1 z312z313z1 
z169z6z1 z169z265z1 z169z47z1 z169z47z2 z169z255z1 z169z25z1 z169z25z2 z169z210z1 z169z213z1 z169z213z2 z169z313z1 
z161z47z2 z161z25z2 z161z210z3 
z6z265z1 z6z47z1 z6z255z1 z6z25z1 z6z210z1 z6z210z3 z6z313z1 
z265z47z1 z265z255z1 z265z25z1 z265z210z1 z265z313z1 
z47z255z1 z47z25z1 z47z25z2 z47z210z1 z47z313z1 
z185z18z1 z185z213z1 
z255z25z1 z255z210z1 z255z313z1 
z18z213z1 
z25z210z1 z25z313z1 
z210z313z1 



End